20170609 100 0 0 0
20160607 50 0 0 0
20150612 170 0 0 0
20140617 200 6000 0 0
20130606 180 0 0 0
20120525 150 0 0 0
20110526 200 10000 0 0
20100607 200 0 0 0
20090521 150 0 0 0
20080610 120 0 0 0
20070516 60 0 0 0
20060517 60 0 0 0
20051229 0 3000 0 0
20050616 60 0 0 0
20040622 60 0 0 0
20030523 40 0 0 0
20020614 35 0 0 0
20010612 40 0 0 0
19980825 30 0 0 0
19960730 130 0 0 0
19941205 220 0 0 0
19940418 0 2000 0 0
